# Objective value = 9.1333333333333329e+00
x0 5.3333333333333333e-01
x1 0
x2 0
x3 0
x4 0
x5 0
x6 0
x7 0
x8 0
x9 0
x10 0
x11 0
x12 0
x13 0
x14 0
x15 6.6666666666666666e-02
x16 0
x17 0
x18 0
x19 6.6666666666666666e-02
x21 0
x23 0
x22 0
x24 0
